clingo version 4.5.4
Reading from .../company_founder/amie_hard_top15.lpmln ...
UNKNOWN

Models       : 0+    
Calls        : 1
Time         : 0.001s (Solving: 0.00s 1st Model: 0.00s Unsat: 0.00s)
CPU Time     : 0.000s
